c	Created in graph generator tool by Shahar Bardugo & Dorin Matzrafi
c
p	sp 20 40
c	graph contains 20 nodes and 40 arcs
c
a	1	5	0
a	1	6	0
a	7	1	0
a	2	7	0
a	4	6	0
a	2	4	0
a	7	5	0
a	6	7	0
a	4	10	0
a	6	9	0
a	2	11	0
a	9	8	0
a	2	13	0
a	18	1	0
a	2	18	0
a	11	10	0
a	6	16	0
a	8	14	0
a	7	17	0
a	7	18	0
a	9	13	0
a	20	7	0
a	3	17	0
a	14	16	0
a	10	20	0
a	15	17	0
a	15	20	0
a	16	20	0
a	18	17	0
a	5	2	0
a	19	20	0
a	20	19	0
a	5	3	0
a	6	2	0
a	5	4	0
a	7	2	0
a	7	3	0
a	6	5	0
a	3	9	0
a	8	5	0
